Version identifier: 22.1.0.0 | 2022-03-09 | 1a383f8ce
CPXPARAM_Read_DataCheck                          1
1 of 1 MIP starts provided solutions.
MIP start 'm1' defined initial solution with objective 81.0000.
Tried aggregator 4 times.
MIP Presolve eliminated 215050 rows and 15776 columns.
MIP Presolve modified 1950 coefficients.
Aggregator did 203439 substitutions.
Reduced MIP has 16386 rows, 206035 columns, and 428878 nonzeros.
Reduced MIP has 205985 binaries, 50 generals, 0 SOSs, and 0 indicators.
Presolve time = 3.26 sec. (3424.83 ticks)
Tried aggregator 1 time.
Detecting symmetries...
Reduced MIP has 16386 rows, 206035 columns, and 428878 nonzeros.
Reduced MIP has 205985 binaries, 50 generals, 0 SOSs, and 0 indicators.
Presolve time = 0.75 sec. (367.52 ticks)
Probing fixed 75 vars, tightened 0 bounds.
Probing time = 0.89 sec. (87.35 ticks)
Clique table members: 415801.
MIP emphasis: balance optimality and feasibility.
MIP search method: dynamic search.
Parallel mode: deterministic, using up to 8 threads.
Root relaxation solution time = 2.10 sec. (1248.42 ticks)

        Nodes                                         Cuts/
   Node  Left     Objective  IInf  Best Integer    Best Bound    ItCnt     Gap

*     0+    0                           81.0000        0.0000           100.00%
      0     0       50.3957 12277       81.0000       50.3957       25   37.78%
      0     0        cutoff             81.0000                     56    0.00%
Elapsed time = 31.43 sec. (26789.03 ticks, tree = 0.01 MB, solutions = 1)

Gomory fractional cuts applied:  31

Root node processing (before b&c):
  Real time             =   31.44 sec. (26803.28 ticks)
Parallel b&c, 8 threads:
  Real time             =    0.00 sec. (0.00 ticks)
  Sync time (average)   =    0.00 sec.
  Wait time (average)   =    0.00 sec.
                          ------------
Total (root+branch&cut) =   31.44 sec. (26803.28 ticks)
